(declare-const term_to_project_onto Real)
(declare-const term_to_project_onto0 Real)
(declare-const term_to_project_onto1 Real)
(declare-const tmp Int)
(assert (exists
         ((|tmp'?1| Int) (|j'?2| Int) (phi_k?3 Int) (phi_j?4 Int)
            (|k'?5| Int) (K?6 Int) (|k'?7| Int) (havoc?8 Int) (k?9 Int)
            (j?10 Int) (i?11 Int) (n?12 Int) (m?13 Int))
         (and (<= (- j?10) 0) (<= (- i?11) 0) (<= (+ (- n?12) 1) 0)
                (<= (+ (- m?13) j?10 1) 0)
                (or (and (or (<= (+ havoc?8 1) 0) (<= (+ (- havoc?8) 1) 0))
                           (<= (- j?10) 0) (= (+ (- |k'?5|) K?6) 0)
                           (or (and (= K?6 0) (= (- |k'?5|) 0))
                                 (and (<= (+ (- K?6) 1) 0) (<= (- j?10) 0)
                                        (<= (+ (- |k'?5|) 1) 0)
                                        (<= (+ |k'?5| (- j?10) -1) 0)))
                           (<= (- K?6) 0) (<= (- |k'?5|) 0) (<= (- j?10) 0)
                           (<= (+ (- |k'?5|) j?10 1) 0)
                           (= (+ (- phi_j?4) j?10 1) 0)
                           (= (+ (- phi_k?3) |k'?5|) 0))
                      (and (= havoc?8 0) (<= (+ (- n?12) i?11 (- j?10) -4) 0)
                             (= (+ (- phi_j?4) j?10 2) 0)
                             (= (+ k?9 (- phi_k?3)) 0)))
                (= (+ |tmp'?1| (- havoc?8)) 0) (= (+ |k'?7| (- phi_k?3)) 0)
                (= (+ |j'?2| (- phi_j?4)) 0)
                (= term_to_project_onto1 (+ |j'?2| (- j?10)))
                (= term_to_project_onto0 (+ |k'?7| (- k?9)))
                (= term_to_project_onto (+ |tmp'?1| (- tmp))))))
(check-sat)
